peakDumbCharging = 22200; 
Machine = anon_enum(16); 
machineSpeed = [3700,3700,3700,3700,3700,3700,3700,3700,3700,3700,3700,3700,3700,3700,3700,3700]; 
machineLoad = [3700,3700,3700,3700,3700,3700,3700,3700,3700,3700,3700,3700,3700,3700,3700,3700]; 
Car = anon_enum(37); 
demandCar = [10520,2160,2720,21280,9760,11520,4120,6200,5200,9800,5040,16080,1240,3080,9960,21760,8760,13080,19840,1040,8920,6840,5240,2280,3200,9560,6960,3640,6920,9320,5000,2560,22840,13040,1480,11320,26320]; 
arrivalCar = [71,69,68,67,67,64,63,61,61,61,60,59,59,57,55,55,54,54,53,52,51,51,50,49,48,48,46,44,44,43,41,40,39,38,35,34,27]; 
departureCar = [76,71,70,76,73,69,66,65,63,64,62,65,61,59,61,66,60,62,64,53,55,56,53,55,50,52,50,46,47,47,44,42,46,43,37,40,36]; 
